solution status: time limit reached
objective value:                                  423
C0061                                               1 	(obj:0)
C0063                                               1 	(obj:0)
C0074                                               1 	(obj:0)
C0085                                               1 	(obj:0)
C0095                                               1 	(obj:0)
C0106                                               1 	(obj:0)
C0115                                               1 	(obj:0)
C0127                                               1 	(obj:0)
C0133                                               1 	(obj:0)
C0148                                               1 	(obj:0)
C0153                                               1 	(obj:0)
C0167                                               1 	(obj:0)
C0174                                               1 	(obj:0)
C0186                                               1 	(obj:0)
C0202                                               1 	(obj:0)
C0208                                               1 	(obj:0)
C0221                                               1 	(obj:0)
C0231                                               1 	(obj:0)
C0234                                               1 	(obj:0)
C0247                                               1 	(obj:0)
C0258                                               1 	(obj:0)
C0263                                               1 	(obj:0)
C0282                                               1 	(obj:0)
C0291                                               1 	(obj:0)
C0298                                               1 	(obj:0)
C0305                                               1 	(obj:0)
C0317                                               1 	(obj:0)
C0329                                               1 	(obj:0)
C0336                                               1 	(obj:0)
C0349                                               1 	(obj:0)
C0360                                               1 	(obj:0)
C0365                                               1 	(obj:0)
C0373                                               1 	(obj:0)
C0386                                               1 	(obj:0)
C0400                                               1 	(obj:0)
C0407                                               1 	(obj:0)
C0419                                               1 	(obj:0)
C0430                                               1 	(obj:0)
C0439                                               1 	(obj:0)
C0450                                               1 	(obj:0)
C0461                                               1 	(obj:0)
C0471                                               1 	(obj:0)
C0482                                               1 	(obj:0)
C0484                                               1 	(obj:0)
C0502                                               1 	(obj:0)
C0504                                               1 	(obj:0)
C0520                                               1 	(obj:0)
C0532                                               1 	(obj:0)
C0539                                               1 	(obj:0)
C0552                                               1 	(obj:0)
C0558                                               1 	(obj:0)
C0566                                               1 	(obj:0)
C0001                                               6 	(obj:1)
C0002                                              10 	(obj:1)
C0003                                               8 	(obj:1)
C0004                                               8 	(obj:1)
C0005                                               6 	(obj:1)
C0006                                               8 	(obj:1)
C0007                                              11 	(obj:1)
C0008                                               8 	(obj:1)
C0009                                              10 	(obj:1)
C0010                                               7 	(obj:1)
C0011                                               7 	(obj:1)
C0012                                               8 	(obj:1)
C0013                                              10 	(obj:1)
C0014                                               9 	(obj:1)
C0015                                               8 	(obj:1)
C0016                                               9 	(obj:1)
C0017                                               7 	(obj:1)
C0018                                               5 	(obj:1)
C0019                                               7 	(obj:1)
C0020                                               7 	(obj:1)
C0021                                               9 	(obj:1)
C0022                                               7 	(obj:1)
C0023                                               7 	(obj:1)
C0024                                               7 	(obj:1)
C0025                                               7 	(obj:1)
C0026                                              10 	(obj:1)
C0027                                               7 	(obj:1)
C0028                                               7 	(obj:1)
C0029                                               5 	(obj:1)
C0030                                               9 	(obj:1)
C0031                                               7 	(obj:1)
C0032                                              11 	(obj:1)
C0033                                               8 	(obj:1)
C0034                                              10 	(obj:1)
C0035                                               7 	(obj:1)
C0036                                              10 	(obj:1)
C0037                                               8 	(obj:1)
C0038                                               9 	(obj:1)
C0039                                              11 	(obj:1)
C0040                                               8 	(obj:1)
C0041                                               9 	(obj:1)
C0042                                               8 	(obj:1)
C0043                                               6 	(obj:1)
C0044                                               8 	(obj:1)
C0045                                               8 	(obj:1)
C0046                                               9 	(obj:1)
C0047                                              10 	(obj:1)
C0048                                               5 	(obj:1)
C0049                                              11 	(obj:1)
C0050                                               6 	(obj:1)
C0051                                              10 	(obj:1)
C0052                                              10 	(obj:1)
